50
8849

125 434
393 101
323 872
450 527
663 595
654 312
150 756
473 694
493 376
279 132
273 370
329 151
215 890
839 831
614 855
469 71
244 52
565 213
753 114
112 798
567 112
264 757
461 846
527 446
25 725
413 595
856 533
247 253
188 808
110 750
698 38
541 249
542 297
886 540
937 725
882 426
481 408
175 11
601 435
852 856
750 835
864 321
823 674
958 769
268 327
207 553
242 504
685 590
160 783
710 2
